unsat
( _c0
  _c1
  _c10
  _c1000
  _c1004
  _c1008
  _c1009
  _c1010
  _c1011
  _c1012
  _c1013
  _c1014
  _c1015
  _c1016
  _c1017
  _c1018
  _c1019
  _c1020
  _c1021
  _c1022
  _c1023
  _c1024
  _c1025
  _c1026
  _c1027
  _c1028
  _c1029
  _c1030
  _c1031
  _c1032
  _c1033
  _c1034
  _c1035
  _c1036
  _c1037
  _c1038
  _c1039
  _c1040
  _c1044
  _c1048
  _c1052
  _c1076
  _c1077
  _c1078
  _c1079
  _c1080
  _c1081
  _c1082
  _c1083
  _c1084
  _c1085
  _c1086
  _c11
  _c12
  _c13
  _c132
  _c133
  _c134
  _c135
  _c136
  _c137
  _c138
  _c139
  _c14
  _c140
  _c141
  _c142
  _c143
  _c144
  _c145
  _c146
  _c147
  _c2
  _c212
  _c213
  _c214
  _c215
  _c216
  _c217
  _c218
  _c219
  _c220
  _c221
  _c222
  _c223
  _c224
  _c225
  _c226
  _c227
  _c228
  _c229
  _c23
  _c230
  _c231
  _c232
  _c233
  _c234
  _c235
  _c236
  _c237
  _c238
  _c239
  _c28
  _c3
  _c304
  _c305
  _c306
  _c308
  _c309
  _c312
  _c316
  _c317
  _c318
  _c320
  _c321
  _c324
  _c328
  _c329
  _c33
  _c330
  _c332
  _c333
  _c336
  _c340
  _c341
  _c342
  _c344
  _c345
  _c348
  _c352
  _c353
  _c354
  _c355
  _c356
  _c357
  _c358
  _c359
  _c360
  _c361
  _c362
  _c366
  _c367
  _c369
  _c371
  _c378
  _c38
  _c39
  _c4
  _c407
  _c408
  _c409
  _c410
  _c411
  _c412
  _c413
  _c414
  _c415
  _c417
  _c418
  _c419
  _c420
  _c422
  _c423
  _c424
  _c425
  _c426
  _c428
  _c429
  _c430
  _c431
  _c433
  _c434
  _c435
  _c436
  _c437
  _c439
  _c44
  _c440
  _c441
  _c442
  _c444
  _c445
  _c446
  _c447
  _c449
  _c450
  _c451
  _c452
  _c454
  _c455
  _c456
  _c457
  _c458
  _c460
  _c461
  _c462
  _c463
  _c464
  _c465
  _c466
  _c467
  _c468
  _c471
  _c472
  _c473
  _c474
  _c476
  _c477
  _c478
  _c479
  _c481
  _c482
  _c483
  _c484
  _c487
  _c488
  _c489
  _c49
  _c490
  _c492
  _c493
  _c494
  _c495
  _c497
  _c498
  _c499
  _c5
  _c500
  _c503
  _c504
  _c505
  _c506
  _c508
  _c509
  _c510
  _c511
  _c513
  _c514
  _c515
  _c516
  _c519
  _c520
  _c521
  _c522
  _c524
  _c525
  _c526
  _c527
  _c529
  _c530
  _c531
  _c532
  _c534
  _c535
  _c54
  _c540
  _c545
  _c55
  _c550
  _c556
  _c557
  _c558
  _c559
  _c561
  _c562
  _c563
  _c564
  _c566
  _c567
  _c568
  _c569
  _c571
  _c572
  _c573
  _c574
  _c575
  _c576
  _c577
  _c578
  _c579
  _c580
  _c581
  _c582
  _c583
  _c584
  _c585
  _c586
  _c6
  _c636
  _c637
  _c638
  _c639
  _c640
  _c641
  _c642
  _c643
  _c644
  _c646
  _c647
  _c648
  _c649
  _c651
  _c652
  _c653
  _c654
  _c655
  _c657
  _c658
  _c659
  _c660
  _c662
  _c663
  _c664
  _c665
  _c666
  _c668
  _c669
  _c670
  _c671
  _c673
  _c674
  _c675
  _c676
  _c678
  _c679
  _c680
  _c681
  _c683
  _c684
  _c685
  _c686
  _c687
  _c689
  _c690
  _c691
  _c692
  _c693
  _c694
  _c695
  _c696
  _c697
  _c7
  _c720
  _c721
  _c722
  _c731
  _c732
  _c733
  _c743
  _c744
  _c745
  _c755
  _c756
  _c757
  _c8
  _c815
  _c816
  _c817
  _c818
  _c819
  _c820
  _c821
  _c822
  _c823
  _c824
  _c825
  _c826
  _c827
  _c828
  _c829
  _c830
  _c831
  _c832
  _c833
  _c834
  _c835
  _c836
  _c837
  _c838
  _c839
  _c840
  _c841
  _c842
  _c843
  _c844
  _c845
  _c846
  _c847
  _c848
  _c849
  _c850
  _c851
  _c852
  _c853
  _c854
  _c855
  _c856
  _c857
  _c858
  _c859
  _c860
  _c861
  _c862
  _c863
  _c864
  _c865
  _c866
  _c876
  _c877
  _c878
  _c889
  _c890
  _c891
  _c9
  _c900
  _c901
  _c902
  _c912
  _c913
  _c914
  _c924
  _c926
  _c930
  _c936
  _c938
  _c942
  _c950
  _c951
  _c954
  _c960
  _c961
  _c962
  _c963
  _c964
  _c965
  _c966
  _c967
  _c968
  _c969
  _c970
  _c971
  _c972
  _c973
  _c974
  _c975
  _c992
  _c996 )
